NAME : ../File/prFile/tspFile/tsp_file14.tsp.400.tour
COMMENT : Length = 400
COMMENT : Found by LKH-3 [Keld Helsgaun] Wed Jun 14 17:47:17 2023
TYPE : TOUR
DIMENSION : 30
TOUR_SECTION
1
3
10
25
15
11
18
28
23
7
26
22
30
19
12
27
2
9
16
8
4
21
5
14
6
17
13
29
20
24
-1
EOF
